85 54 35 74 84 56 31 27 47 55 28 38 2 59 6 63 15 62 8 34 10 95 81 73 16 24 92 70 26 64 3 50 4 79 22 23 18 60 45 57 39 11 41 13 20 72 69 7 19 40 68 30 46 97 1 86 78 42 51 99 37 88 25 76 14 5 29 32 43 17 93 58 33 12 67 82 0 90 52 53 61 89 80 44 65 48 36 9 94 75 98 49 77 87 71 83 21 66 91 96